NAME: eil22_20
COMMENT: 375.28
VEHICLE: 4
TIME: 1.011
DIMENSION: 22
CAPACITY: 6000
DELIVERY_SECTION
0 0 0
1 1 600
2 1 300
3 1 60
4 1 60
5 1 60
6 1 20
7 2 600
8 2 60
9 2 40
10 3 600
11 3 60
12 3 60
13 3 60
14 3 20
15 4 1200
16 4 60
17 4 60
18 4 60
19 4 20
20 5 1200
21 5 600
22 5 300
23 6 300
24 6 60
25 6 40
26 7 600
27 7 60
28 7 60
29 7 60
30 7 20
31 8 60
32 8 40
33 9 300
34 9 60
35 9 60
36 9 60
37 9 20
38 10 600
39 11 1200
40 12 1200
41 12 60
42 12 40
43 13 1200
44 13 60
45 13 40
46 14 300
47 15 600
48 15 300
49 16 1200
50 16 600
51 16 300
52 17 600
53 17 300
54 17 60
55 17 40
56 18 600
57 18 300
58 19 1200
59 19 1200
60 19 60
61 19 40
62 20 1200
63 20 600
64 21 600
65 21 60
66 21 40
PICKUP_SECTION
NODE_SECTION
145 215
151 264
159 261
130 254
128 252
163 247
146 246
161 242
142 239
163 236
148 232
128 231
156 217
129 214
146 208
164 208
141 206
147 193
164 193
129 189
155 185
139 182
DISTANCE_SECTION
DEPOT_SECTION
0
EOF